pure_adt/tip2015_weird_nat_add3_spec.smt2
(set-logic HORN)
(declare-datatypes ((Nat_530 0)) (((zero_147 ) (succ_143 (p_401 Nat_530)))))
(declare-fun diseqNat_530 (Nat_530 Nat_530) Bool)
(declare-fun p_402 (Nat_530 Nat_530) Bool)
(declare-fun iszero_143 (Nat_530) Bool)
(declare-fun issucc_143 (Nat_530) Bool)
(assert (forall ((x_53950 Nat_530))
	(p_402 x_53950 (succ_143 x_53950))))
(assert (iszero_143 zero_147))
(assert (forall ((x_53952 Nat_530))
	(issucc_143 (succ_143 x_53952))))
(assert (forall ((x_53953 Nat_530))
	(diseqNat_530 zero_147 (succ_143 x_53953))))
(assert (forall ((x_53954 Nat_530))
	(diseqNat_530 (succ_143 x_53954) zero_147)))
(assert (forall ((x_53955 Nat_530) (x_53956 Nat_530))
	(=> (diseqNat_530 x_53955 x_53956)
	    (diseqNat_530 (succ_143 x_53955) (succ_143 x_53956)))))
(declare-fun plus_136 (Nat_530 Nat_530 Nat_530) Bool)
(assert (forall ((x_53928 Nat_530) (z_1903 Nat_530) (y_2138 Nat_530))
	(=> (plus_136 x_53928 z_1903 y_2138)
	    (plus_136 (succ_143 x_53928) (succ_143 z_1903) y_2138))))
(assert (forall ((x_53929 Nat_530))
	(plus_136 x_53929 zero_147 x_53929)))
(declare-fun add_339 (Nat_530 Nat_530 Nat_530 Nat_530) Bool)
(assert (forall ((x_53930 Nat_530) (x_53931 Nat_530) (x_53920 Nat_530) (y_2139 Nat_530) (z_1904 Nat_530))
	(=>	(and (add_339 x_53931 x_53920 y_2139 z_1904)
			(plus_136 x_53930 (succ_143 zero_147) x_53931))
		(add_339 x_53930 (succ_143 x_53920) y_2139 z_1904))))
(assert (forall ((x_53933 Nat_530) (x_53934 Nat_530) (x_53921 Nat_530) (z_1904 Nat_530))
	(=>	(and (add_339 x_53934 zero_147 x_53921 z_1904)
			(plus_136 x_53933 (succ_143 zero_147) x_53934))
		(add_339 x_53933 zero_147 (succ_143 x_53921) z_1904))))
(assert (forall ((x_53936 Nat_530))
	(add_339 x_53936 zero_147 zero_147 x_53936)))
(assert (forall ((x_53937 Nat_530) (x_53938 Nat_530) (x_53939 Nat_530) (x_53922 Nat_530) (y_2140 Nat_530) (z_1905 Nat_530))
	(=>	(and true
			(diseqNat_530 x_53937 x_53939)
			(add_339 x_53937 x_53922 y_2140 z_1905)
			(plus_136 x_53938 y_2140 z_1905)
			(plus_136 x_53939 x_53922 x_53938))
		false)))
(assert (forall ((x_53940 Nat_530) (x_53941 Nat_530) (x_53942 Nat_530) (x_53943 Nat_530) (x_53923 Nat_530) (y_2141 Nat_530) (z_1906 Nat_530))
	(=>	(and true
			(diseqNat_530 x_53941 x_53943)
			(plus_136 x_53940 y_2141 z_1906)
			(plus_136 x_53941 x_53923 x_53940)
			(plus_136 x_53942 x_53923 y_2141)
			(plus_136 x_53943 x_53942 z_1906))
		false)))
(assert (forall ((x_53944 Nat_530) (x_53945 Nat_530) (x_53924 Nat_530) (y_2142 Nat_530))
	(=>	(and true
			(diseqNat_530 x_53944 x_53945)
			(plus_136 x_53944 x_53924 y_2142)
			(plus_136 x_53945 y_2142 x_53924))
		false)))
(assert (forall ((x_53946 Nat_530) (x_53925 Nat_530))
	(=>	(and true
			(diseqNat_530 x_53946 x_53925)
			(plus_136 x_53946 x_53925 zero_147))
		false)))
(assert (forall ((x_53947 Nat_530) (x_53926 Nat_530))
	(=>	(and true
			(diseqNat_530 x_53947 x_53926)
			(plus_136 x_53947 zero_147 x_53926))
		false)))
(check-sat)
